c File: data_files/evolved_graphs/g6437.col
c
c Auto generated graph
c
p edge 100 601
e 1 6
e 1 14
e 1 16
e 1 19
e 1 23
e 1 31
e 1 51
e 1 54
e 1 61
e 1 84
e 1 94
e 1 96
e 1 99
e 2 14
e 2 31
e 2 42
e 2 43
e 2 50
e 2 59
e 2 61
e 2 84
e 2 90
e 2 93
e 2 94
e 2 96
e 3 22
e 3 24
e 3 42
e 3 49
e 3 57
e 3 78
e 3 84
e 3 88
e 3 91
e 3 96
e 3 97
e 3 100
e 4 10
e 4 43
e 4 64
e 4 65
e 4 66
e 4 67
e 4 87
e 4 89
e 4 97
e 4 98
e 4 100
e 5 11
e 5 37
e 5 41
e 5 48
e 5 53
e 5 55
e 5 64
e 5 75
e 5 82
e 5 87
e 5 88
e 5 91
e 5 100
e 6 18
e 6 33
e 6 42
e 6 44
e 6 49
e 6 50
e 6 52
e 6 53
e 6 66
e 6 88
e 6 93
e 6 97
e 7 9
e 7 15
e 7 16
e 7 19
e 7 25
e 7 48
e 7 54
e 7 67
e 7 85
e 7 89
e 7 91
e 7 92
e 8 25
e 8 27
e 8 37
e 8 39
e 8 63
e 8 76
e 8 78
e 8 79
e 8 82
e 8 84
e 8 97
e 9 35
e 9 42
e 9 53
e 9 56
e 9 61
e 9 63
e 9 68
e 9 70
e 9 86
e 9 88
e 10 19
e 10 25
e 10 30
e 10 40
e 10 54
e 10 56
e 10 60
e 10 61
e 10 88
e 10 89
e 10 92
e 10 100
e 11 14
e 11 18
e 11 29
e 11 33
e 11 43
e 11 46
e 11 47
e 11 64
e 11 65
e 11 87
e 11 92
e 12 13
e 12 27
e 12 34
e 12 40
e 12 44
e 12 59
e 12 62
e 12 69
e 12 85
e 12 94
e 12 96
e 12 98
e 13 24
e 13 40
e 13 50
e 13 51
e 13 63
e 13 73
e 13 80
e 13 88
e 13 99
e 13 100
e 14 15
e 14 16
e 14 29
e 14 58
e 14 63
e 14 70
e 14 77
e 14 80
e 14 100
e 15 22
e 15 23
e 15 38
e 15 45
e 15 62
e 15 66
e 15 72
e 15 76
e 15 77
e 15 96
e 16 19
e 16 20
e 16 23
e 16 33
e 16 35
e 16 37
e 16 63
e 16 74
e 16 90
e 17 19
e 17 21
e 17 24
e 17 40
e 17 57
e 17 70
e 17 76
e 17 85
e 17 86
e 17 87
e 17 91
e 17 94
e 17 97
e 18 29
e 18 41
e 18 50
e 18 52
e 18 61
e 18 66
e 18 74
e 18 84
e 18 85
e 18 93
e 19 26
e 19 46
e 19 58
e 19 61
e 19 82
e 19 89
e 19 97
e 20 27
e 20 28
e 20 31
e 20 45
e 20 47
e 20 66
e 20 77
e 20 78
e 20 89
e 20 98
e 21 40
e 21 42
e 21 53
e 21 67
e 21 70
e 21 75
e 21 76
e 21 78
e 21 90
e 21 95
e 21 98
e 22 29
e 22 43
e 22 44
e 22 47
e 22 55
e 22 61
e 22 69
e 22 77
e 22 82
e 22 97
e 23 32
e 23 34
e 23 39
e 23 55
e 23 70
e 23 71
e 23 74
e 23 91
e 23 100
e 24 35
e 24 38
e 24 39
e 24 46
e 24 50
e 24 70
e 24 71
e 24 72
e 24 73
e 24 74
e 24 95
e 25 41
e 25 42
e 25 48
e 25 55
e 25 70
e 25 71
e 25 72
e 25 79
e 25 83
e 25 96
e 26 27
e 26 29
e 26 31
e 26 32
e 26 49
e 26 51
e 26 70
e 26 78
e 26 79
e 26 83
e 27 43
e 27 45
e 27 46
e 27 49
e 27 71
e 27 73
e 27 74
e 27 75
e 27 86
e 28 40
e 28 41
e 28 42
e 28 44
e 28 45
e 28 51
e 28 58
e 28 79
e 28 81
e 28 87
e 29 49
e 29 66
e 29 67
e 29 68
e 29 70
e 29 79
e 29 89
e 30 38
e 30 47
e 30 52
e 30 53
e 30 65
e 30 75
e 30 80
e 30 82
e 30 83
e 30 93
e 31 35
e 31 47
e 31 54
e 31 57
e 31 69
e 31 82
e 31 84
e 31 87
e 31 99
e 32 54
e 32 59
e 32 60
e 32 64
e 32 66
e 32 68
e 32 80
e 32 81
e 32 83
e 32 95
e 32 96
e 33 37
e 33 39
e 33 57
e 33 59
e 33 68
e 33 79
e 33 81
e 33 83
e 33 89
e 34 37
e 34 41
e 34 51
e 34 53
e 34 60
e 34 93
e 34 97
e 34 98
e 35 40
e 35 43
e 35 44
e 35 55
e 35 61
e 35 66
e 35 75
e 36 39
e 36 49
e 36 52
e 36 55
e 36 63
e 36 66
e 36 67
e 36 69
e 36 72
e 36 79
e 36 95
e 37 38
e 37 46
e 37 47
e 37 50
e 37 55
e 37 68
e 37 91
e 38 43
e 38 59
e 38 60
e 38 65
e 38 70
e 38 89
e 38 99
e 39 50
e 39 62
e 39 64
e 39 87
e 39 92
e 39 94
e 39 95
e 40 44
e 40 68
e 40 89
e 40 91
e 40 92
e 41 47
e 41 63
e 41 66
e 41 70
e 41 92
e 41 96
e 42 49
e 42 64
e 42 68
e 42 77
e 43 48
e 43 56
e 43 74
e 43 76
e 43 93
e 43 99
e 44 49
e 44 54
e 44 64
e 44 71
e 44 72
e 44 80
e 45 61
e 45 68
e 45 76
e 45 83
e 45 92
e 45 93
e 45 99
e 46 51
e 46 56
e 46 62
e 46 79
e 46 87
e 46 99
e 47 48
e 47 64
e 47 72
e 47 76
e 47 94
e 48 51
e 48 52
e 48 62
e 48 69
e 48 71
e 48 83
e 49 53
e 49 61
e 49 69
e 49 73
e 49 74
e 49 85
e 50 60
e 50 68
e 50 80
e 50 82
e 50 86
e 51 52
e 51 53
e 51 57
e 51 68
e 51 73
e 52 67
e 52 74
e 52 80
e 52 84
e 52 87
e 53 70
e 53 76
e 53 81
e 53 92
e 54 60
e 54 62
e 54 65
e 54 73
e 54 77
e 55 58
e 55 61
e 55 70
e 55 82
e 55 99
e 56 72
e 56 73
e 56 81
e 56 83
e 56 87
e 56 94
e 56 97
e 57 64
e 57 67
e 57 71
e 57 73
e 57 85
e 57 98
e 58 65
e 58 69
e 58 72
e 58 75
e 58 78
e 58 81
e 58 87
e 58 99
e 58 100
e 59 67
e 59 71
e 59 76
e 59 78
e 59 85
e 59 89
e 60 61
e 60 69
e 60 71
e 60 78
e 60 82
e 60 95
e 61 62
e 61 67
e 62 68
e 62 86
e 62 87
e 62 90
e 63 64
e 63 68
e 63 75
e 63 76
e 63 86
e 64 85
e 65 67
e 65 68
e 65 83
e 65 94
e 65 96
e 65 97
e 65 98
e 66 70
e 66 94
e 66 95
e 67 72
e 67 76
e 67 89
e 67 100
e 68 94
e 69 91
e 69 93
e 70 78
e 71 80
e 71 90
e 71 92
e 72 88
e 73 75
e 73 76
e 73 79
e 73 90
e 74 76
e 74 81
e 74 90
e 74 98
e 75 80
e 75 88
e 75 89
e 77 80
e 77 81
e 77 83
e 77 88
e 77 90
e 78 83
e 78 89
e 78 95
e 79 84
e 79 88
e 79 93
e 79 96
e 80 83
e 80 85
e 80 91
e 81 82
e 81 85
e 81 86
e 81 93
e 82 85
e 82 91
e 83 85
e 83 99
e 84 87
e 84 90
e 84 95
e 84 98
e 84 100
e 86 88
e 86 94
e 86 95
e 86 97
e 86 98
e 86 99
e 87 90
e 87 95
e 88 93
e 89 92
e 89 97
e 90 91
e 92 93
e 93 95
e 98 99
e 98 100
